"C:\Program Files\Java\jdk-10.0.2\bin\java.exe" "-javaagent:C:\Program Files\JetBrains\IntelliJ IDEA 2021.3.3\lib\idea_rt.jar=50376:C:\Program Files\JetBrains\IntelliJ IDEA 2021.3.3\bin" -Dfile.encoding=UTF-8 -classpath C:\Users\luca_\IdeaProjects\ElaboratoGurobi2\out\production\ElaboratoGurobi2;C:\gurobi911\win64\lib\gurobi.jar CommessoViaggiatore
Academic license - for non-commercial use only - expires 2023-03-26
Gurobi Optimizer version 9.1.1 build v9.1.1rc0 (win64)
Thread count: 4 physical cores, 8 logical processors, using up to 8 threads
Optimize a model with 2352 rows, 1176 columns and 4608 nonzeros
Model fingerprint: 0xc9fa1e5c
Variable types: 0 continuous, 1176 integer (1176 binary)
Coefficient statistics:
  Matrix range     [1e+00, 1e+00]
  Objective range  [4e+00, 2e+01]
  Bounds range     [1e+00, 1e+00]
  RHS range        [2e+00, 2e+00]
Variable types: 0 continuous, 1176 integer (1176 binary)

Root relaxation: objective 2.400000e+02, 208 iterations, 0.00 seconds

    Nodes    |    Current Node    |     Objective Bounds      |     Work
 Expl Unexpl |  Obj  Depth IntInf | Incumbent    BestBd   Gap | It/Node Time

     0     0  240.00000    0    8          -  240.00000      -     -    0s
     0     0  244.00000    0    6          -  244.00000      -     -    0s
     0     0  244.00000    0   14          -  244.00000      -     -    0s
     0     0  248.00000    0    8          -  248.00000      -     -    0s
     0     0  248.00000    0   12          -  248.00000      -     -    0s
     0     0  248.00000    0   14          -  248.00000      -     -    0s
     0     0  248.00000    0   14          -  248.00000      -     -    0s
     0     0  248.00000    0   22          -  248.00000      -     -    0s
H    0     0                     248.0000000  248.00000  0.00%     -    0s

Cutting planes:
  Gomory: 1
  Zero half: 4
  Lazy constraints: 7

Explored 1 nodes (300 simplex iterations) in 0.12 seconds
Thread count was 8 (of 8 available processors)

Solution count 1: 248

Optimal solution found (tolerance 1.00e-04)
Best objective 2.480000000000e+02, best bound 2.480000000000e+02, gap 0.0000%

User-callback calls 118, time in user-callback 0.00 sec

Stato Ottimizzazione: 2

Gurobi Optimizer version 9.1.1 build v9.1.1rc0 (win64)
Thread count: 4 physical cores, 8 logical processors, using up to 8 threads
Optimize a model with 2353 rows, 1176 columns and 5736 nonzeros
Model fingerprint: 0x8a153c7c
Variable types: 0 continuous, 1176 integer (1176 binary)
Coefficient statistics:
  Matrix range     [1e+00, 2e+01]
  Objective range  [4e+00, 2e+01]
  Bounds range     [1e+00, 1e+00]
  RHS range        [2e+00, 2e+02]
Variable types: 0 continuous, 1176 integer (1176 binary)

Root relaxation: objective 2.480000e+02, 179 iterations, 0.00 seconds

    Nodes    |    Current Node    |     Objective Bounds      |     Work
 Expl Unexpl |  Obj  Depth IntInf | Incumbent    BestBd   Gap | It/Node Time

     0     0  248.00000    0   17          -  248.00000      -     -    0s
     0     0  248.00000    0   20          -  248.00000      -     -    0s
     0     0  248.00000    0   19          -  248.00000      -     -    0s
     0     0  248.00000    0    4          -  248.00000      -     -    0s
     0     0  248.00000    0   13          -  248.00000      -     -    0s
     0     0  248.00000    0   11          -  248.00000      -     -    0s
     0     0  248.00000    0    4          -  248.00000      -     -    0s
     0     0  248.00000    0    7          -  248.00000      -     -    0s
     0     0  248.00000    0    7          -  248.00000      -     -    0s
     0     2  248.00000    0    7          -  248.00000      -     -    0s
*   39     8               6     248.0000000  248.00000  0.00%  17.9    0s

Cutting planes:
  Cover: 1
  Zero half: 3
  Lazy constraints: 6

Explored 44 nodes (1768 simplex iterations) in 0.25 seconds
Thread count was 8 (of 8 available processors)

Solution count 1: 248

Optimal solution found (tolerance 1.00e-04)
Best objective 2.480000000000e+02, best bound 2.480000000000e+02, gap 0.0000%

User-callback calls 215, time in user-callback 0.00 sec

Stato Ottimizzazione: 2

Gurobi Optimizer version 9.1.1 build v9.1.1rc0 (win64)
Thread count: 4 physical cores, 8 logical processors, using up to 8 threads
Optimize a model with 2353 rows, 1176 columns and 4655 nonzeros
Model fingerprint: 0x6b1af67a
Variable types: 0 continuous, 1176 integer (1176 binary)
Coefficient statistics:
  Matrix range     [1e+00, 2e+01]
  Objective range  [4e+00, 2e+01]
  Bounds range     [1e+00, 1e+00]
  RHS range        [2e+00, 5e+01]
Variable types: 0 continuous, 1176 integer (1176 binary)

Root relaxation: objective 2.440000e+02, 172 iterations, 0.00 seconds

    Nodes    |    Current Node    |     Objective Bounds      |     Work
 Expl Unexpl |  Obj  Depth IntInf | Incumbent    BestBd   Gap | It/Node Time

     0     0  250.00000    0    6          -  250.00000      -     -    0s
     0     0  250.00000    0   27          -  250.00000      -     -    0s
H    0     0                     250.0000000  250.00000  0.00%     -    0s
     0     0  250.00000    0   12  250.00000  250.00000  0.00%     -    0s

Cutting planes:
  Gomory: 1
  Zero half: 2
  Lazy constraints: 4

Explored 1 nodes (198 simplex iterations) in 0.04 seconds
Thread count was 8 (of 8 available processors)

Solution count 1: 250

Optimal solution found (tolerance 1.00e-04)
Best objective 2.500000000000e+02, best bound 2.500000000000e+02, gap 0.0000%

User-callback calls 67, time in user-callback 0.00 sec

Stato Ottimizzazione: 2


COPPIA <17>
Componenti <Castelnovo Luca> <Soncina Daniele>

QUESITO I:
funzione obiettivo =  <248,0000>
ciclo ottimo 1 = [0, 11, 36, 25, 47, 31, 43, 37, 1, 21, 20, 3, 42, 24, 29, 28, 32, 45, 34, 40, 30, 15, 4, 44, 7, 16, 17, 19, 38, 14, 22, 2, 27, 10, 46, 26, 23, 5, 18, 33, 13, 12, 6, 8, 9, 35, 39, 41]
QUESITO II:
funzione obiettivo =  <248,0000>
ciclo ottimo 2 = [0, 11, 3, 20, 10, 46, 26, 23, 5, 4, 44, 7, 16, 17, 19, 38, 14, 22, 2, 27, 18, 33, 13, 12, 6, 8, 9, 35, 39, 41, 15, 30, 40, 34, 45, 32, 28, 29, 24, 42, 1, 21, 37, 43, 31, 47, 25, 36]
QUESITO III: 
funzione obiettivo =  <250,0000>
ciclo ottimo 3 = [0, 11, 38, 19, 17, 16, 7, 44, 4, 5, 18, 33, 13, 12, 6, 8, 9, 35, 39, 41, 14, 22, 2, 27, 10, 46, 26, 23, 25, 47, 31, 43, 37, 21, 1, 20, 3, 42, 24, 29, 28, 32, 45, 34, 40, 15, 30, 36]

Process finished with exit code 0
